1040
1 0 5 521 0 1040 1 1039 1 1038 1 1037 1
2 0 5 522 1 720 1 961 1 1004 1 692 1
3 0 5 523 1 853 1 881 1 968 1 959 1
4 0 5 524 1 708 1 779 1 869 1 573 1
5 0 5 525 1 735 1 807 1 684 1 932 1
6 0 5 526 1 822 1 733 1 970 1 860 1
7 0 5 527 1 620 1 581 1 667 1 847 1
8 0 5 528 1 529 1 775 1 722 1 734 1
9 0 5 529 1 775 1 735 1 525 1 981 1
10 0 5 530 1 734 1 670 1 973 1 603 1
11 0 5 531 1 750 1 872 1 841 1 697 1
12 0 5 532 1 658 1 570 1 750 1 971 1
13 0 5 533 1 522 1 720 1 961 1 692 1
14 0 5 534 1 574 1 614 1 758 1 985 1
15 0 5 535 1 698 1 840 1 605 1 963 1
16 0 5 536 1 976 1 832 1 927 1 998 1
17 0 5 537 1 846 1 771 1 870 1 938 1
18 0 5 538 1 661 1 950 1 792 1 694 1
19 0 5 539 1 903 1 707 1 547 1 907 1
20 0 5 540 1 787 1 716 1 669 1 1019 1
21 0 5 541 1 549 1 694 1 595 1 725 1
22 0 5 542 1 823 1 665 1 933 1 553 1
23 0 5 543 1 1000 1 818 1 644 1 945 1
24 0 5 544 1 940 1 916 1 583 1 850 1
25 0 5 545 1 986 1 561 1 548 1 839 1
26 0 5 546 1 915 1 868 1 891 1 711 1
27 0 5 547 1 903 1 707 1 907 1 951 1
28 0 5 548 1 545 1 561 1 986 1 782 1
29 0 5 549 1 725 1 694 1 865 1 721 1
30 0 5 550 1 1011 1 526 1 822 1 733 1
31 0 5 551 1 563 1 901 1 882 1 859 1
32 0 5 552 1 784 1 887 1 615 1 1018 1
33 0 5 553 1 835 1 885 1 895 1 898 1
34 0 5 554 1 821 1 824 1 919 1 708 1
35 0 5 555 1 913 1 887 1 611 1 1018 1
36 0 5 556 1 951 1 631 1 871 1 547 1
37 0 5 557 1 643 1 977 1 565 1 811 1
38 0 5 558 1 931 1 964 1 774 1 914 1
39 0 5 559 1 678 1 683 1 671 1 980 1
40 0 5 560 1 788 1 706 1 812 1 954 1
41 0 5 561 1 628 1 548 1 545 1 986 1
42 0 5 562 1 581 1 672 1 810 1 624 1
43 0 5 563 1 882 1 901 1 922 1 551 1
44 0 5 564 1 813 1 890 1 727 1 985 1
45 0 5 565 1 621 1 977 1 688 1 570 1
46 0 5 566 1 780 1 594 1 688 1 621 1
47 0 5 567 1 672 1 562 1 845 1 581 1
48 0 5 568 1 551 1 662 1 852 1 859 1
49 0 5 569 1 883 1 885 1 895 1 898 1
50 0 5 570 1 532 1 658 1 695 1 977 1
51 0 5 571 1 714 1 852 1 944 1 613 1
52 0 5 572 1 864 1 866 1 733 1 652 1
53 0 5 573 1 616 1 999 1 603 1 651 1
54 0 5 574 1 758 1 534 1 614 1 853 1
55 0 5 575 1 666 1 602 1 849 1 721 1
56 0 5 576 1 612 1 625 1 632 1 663 1
57 0 5 577 1 902 1 739 1 833 1 827 1
58 0 5 578 1 996 1 930 1 873 1 674 1
59 0 5 579 1 725 1 865 1 792 1 772 1
60 0 5 580 1 938 1 695 1 750 1 532 1
61 0 5 581 1 810 1 567 1 562 1 845 1
62 0 5 582 1 764 1 535 1 963 1 605 1
63 0 5 583 1 597 1 744 1 712 1 940 1
64 0 5 584 1 697 1 837 1 1016 1 989 1
65 0 5 585 1 937 1 912 1 931 1 646 1
66 0 5 586 1 763 1 617 1 821 1 824 1
67 0 5 587 1 892 1 608 1 1015 1 782 1
68 0 5 588 1 983 1 842 1 749 1 701 1
69 0 5 589 1 966 1 607 1 835 1 895 1
70 0 5 590 1 1002 1 732 1 889 1 701 1
71 0 5 591 1 716 1 540 1 945 1 974 1
72 0 5 592 1 663 1 632 1 975 1 966 1
73 0 5 593 1 677 1 979 1 854 1 913 1
74 0 5 594 1 871 1 780 1 556 1 723 1
75 0 5 595 1 865 1 721 1 602 1 742 1
76 0 5 596 1 754 1 621 1 697 1 993 1
77 0 5 597 1 712 1 583 1 770 1 950 1
78 0 5 598 1 1020 1 642 1 819 1 629 1
79 0 5 599 1 726 1 969 1 642 1 856 1
80 0 5 600 1 810 1 926 1 773 1 858 1
81 0 5 601 1 973 1 757 1 651 1 704 1
82 0 5 602 1 575 1 666 1 865 1 913 1
83 0 5 603 1 616 1 530 1 670 1 573 1
84 0 5 604 1 796 1 730 1 541 1 721 1
85 0 5 605 1 579 1 535 1 698 1 764 1
86 0 5 606 1 989 1 627 1 565 1 688 1
87 0 5 607 1 650 1 772 1 828 1 966 1
88 0 5 608 1 1015 1 587 1 789 1 892 1
89 0 5 609 1 955 1 924 1 985 1 587 1
90 0 5 610 1 782 1 628 1 548 1 561 1
91 0 5 611 1 979 1 854 1 593 1 555 1
92 0 5 612 1 576 1 625 1 539 1 547 1
93 0 5 613 1 960 1 635 1 999 1 944 1
94 0 5 614 1 985 1 639 1 1020 1 574 1
95 0 5 615 1 742 1 717 1 552 1 784 1
96 0 5 616 1 603 1 573 1 601 1 766 1
97 0 5 617 1 586 1 824 1 763 1 821 1
98 0 5 618 1 796 1 521 1 731 1 743 1
99 0 5 619 1 905 1 800 1 827 1 717 1
100 0 5 620 1 667 1 581 1 562 1 527 1
101 0 5 621 1 688 1 596 1 565 1 697 1
102 0 5 622 1 591 1 825 1 755 1 794 1
103 0 5 623 1 646 1 996 1 537 1 746 1
104 0 5 624 1 964 1 931 1 558 1 562 1
105 0 5 625 1 1006 1 576 1 612 1 950 1
106 0 5 626 1 858 1 993 1 826 1 962 1
107 0 5 627 1 606 1 890 1 657 1 934 1
108 0 5 628 1 783 1 561 1 782 1 853 1
109 0 5 629 1 630 1 765 1 1020 1 853 1
110 0 5 630 1 1003 1 726 1 653 1 629 1
111 0 5 631 1 556 1 871 1 723 1 951 1
112 0 5 632 1 663 1 634 1 975 1 589 1
113 0 5 633 1 904 1 876 1 701 1 749 1
114 0 5 634 1 795 1 738 1 975 1 656 1
115 0 5 635 1 613 1 859 1 972 1 944 1
116 0 5 636 1 693 1 682 1 675 1 705 1
117 0 5 637 1 690 1 625 1 950 1 991 1
118 0 5 638 1 1015 1 587 1 608 1 892 1
119 0 5 639 1 805 1 892 1 608 1 853 1
120 0 5 640 1 962 1 844 1 1007 1 741 1
121 0 5 641 1 861 1 756 1 821 1 737 1
122 0 5 642 1 598 1 819 1 726 1 1003 1
123 0 5 643 1 977 1 606 1 557 1 565 1
124 0 5 644 1 583 1 818 1 712 1 597 1
125 0 5 645 1 748 1 743 1 849 1 797 1
126 0 5 646 1 578 1 937 1 746 1 585 1
127 0 5 647 1 811 1 631 1 871 1 657 1
128 0 5 648 1 651 1 704 1 601 1 923 1
129 0 5 649 1 768 1 884 1 898 1 553 1
130 0 5 650 1 772 1 680 1 950 1 694 1
131 0 5 651 1 601 1 648 1 729 1 999 1
132 0 5 652 1 1017 1 737 1 922 1 864 1
133 0 5 653 1 809 1 961 1 942 1 949 1
134 0 5 654 1 888 1 863 1 565 1 977 1
135 0 5 655 1 745 1 908 1 921 1 817 1
136 0 5 656 1 634 1 994 1 992 1 738 1
137 0 5 657 1 727 1 594 1 890 1 934 1
138 0 5 658 1 695 1 532 1 570 1 580 1
139 0 5 659 1 1008 1 841 1 872 1 786 1
140 0 5 660 1 828 1 917 1 747 1 898 1
141 0 5 661 1 848 1 656 1 745 1 994 1
142 0 5 662 1 852 1 568 1 571 1 859 1
143 0 5 663 1 632 1 592 1 656 1 589 1
144 0 5 664 1 1009 1 786 1 870 1 845 1
145 0 5 665 1 542 1 933 1 823 1 553 1
146 0 5 666 1 849 1 575 1 694 1 680 1
147 0 5 667 1 567 1 581 1 562 1 672 1
148 0 5 668 1 880 1 706 1 840 1 941 1
149 0 5 669 1 974 1 972 1 859 1 540 1
150 0 5 670 1 778 1 530 1 973 1 766 1
151 0 5 671 1 980 1 622 1 600 1 724 1
152 0 5 672 1 912 1 964 1 562 1 624 1
153 0 5 673 1 829 1 789 1 752 1 834 1
154 0 5 674 1 930 1 873 1 996 1 578 1
155 0 5 675 1 577 1 693 1 682 1 868 1
156 0 5 676 1 776 1 990 1 670 1 802 1
157 0 5 677 1 905 1 619 1 717 1 593 1
158 0 5 678 1 671 1 980 1 559 1 683 1
159 0 5 679 1 872 1 978 1 858 1 581 1
160 0 5 680 1 849 1 645 1 748 1 772 1
161 0 5 681 1 956 1 814 1 801 1 824 1
162 0 5 682 1 636 1 693 1 868 1 1001 1
163 0 5 683 1 559 1 678 1 773 1 671 1
164 0 5 684 1 776 1 735 1 923 1 704 1
165 0 5 685 1 982 1 851 1 731 1 896 1
166 0 5 686 1 1013 1 773 1 874 1 728 1
167 0 5 687 1 571 1 852 1 563 1 714 1
168 0 5 688 1 566 1 621 1 741 1 844 1
169 0 5 689 1 837 1 987 1 1016 1 558 1
170 0 5 690 1 625 1 950 1 576 1 637 1
171 0 5 691 1 665 1 542 1 953 1 560 1
172 0 5 692 1 1010 1 961 1 942 1 875 1
173 0 5 693 1 675 1 577 1 682 1 902 1
174 0 5 694 1 680 1 792 1 549 1 950 1
175 0 5 695 1 580 1 658 1 532 1 570 1
176 0 5 696 1 662 1 568 1 851 1 859 1
177 0 5 697 1 584 1 596 1 621 1 826 1
178 0 5 698 1 605 1 535 1 840 1 709 1
179 0 5 699 1 1007 1 838 1 640 1 850 1
180 0 5 700 1 791 1 945 1 1019 1 540 1
181 0 5 701 1 911 1 842 1 732 1 766 1
182 0 5 702 1 932 1 814 1 824 1 525 1
183 0 5 703 1 833 1 739 1 868 1 800 1
184 0 5 704 1 648 1 601 1 776 1 651 1
185 0 5 705 1 816 1 1001 1 925 1 899 1
186 0 5 706 1 840 1 880 1 560 1 954 1
187 0 5 707 1 539 1 547 1 907 1 903 1
188 0 5 708 1 779 1 807 1 554 1 919 1
189 0 5 709 1 747 1 828 1 898 1 660 1
190 0 5 710 1 723 1 753 1 984 1 921 1
191 0 5 711 1 546 1 941 1 761 1 868 1
192 0 5 712 1 770 1 597 1 583 1 950 1
193 0 5 713 1 987 1 771 1 689 1 930 1
194 0 5 714 1 756 1 641 1 946 1 944 1
195 0 5 715 1 914 1 646 1 774 1 965 1
196 0 5 716 1 882 1 563 1 568 1 551 1
197 0 5 717 1 800 1 917 1 1014 1 941 1
198 0 5 718 1 830 1 753 1 984 1 741 1
199 0 5 719 1 740 1 969 1 1003 1 642 1
200 0 5 720 1 692 1 1010 1 1004 1 835 1
201 0 5 721 1 595 1 666 1 602 1 913 1
202 0 5 722 1 820 1 775 1 981 1 923 1
203 0 5 723 1 647 1 811 1 890 1 881 1
204 0 5 724 1 683 1 737 1 1011 1 550 1
205 0 5 725 1 549 1 579 1 742 1 865 1
206 0 5 726 1 642 1 630 1 961 1 599 1
207 0 5 727 1 627 1 890 1 934 1 657 1
208 0 5 728 1 774 1 686 1 762 1 878 1
209 0 5 729 1 920 1 889 1 651 1 776 1
210 0 5 730 1 604 1 541 1 796 1 736 1
211 0 5 731 1 732 1 896 1 1002 1 590 1
212 0 5 732 1 1002 1 701 1 590 1 911 1
213 0 5 733 1 1017 1 1011 1 526 1 572 1
214 0 5 734 1 528 1 981 1 704 1 530 1
215 0 5 735 1 684 1 525 1 981 1 923 1
216 0 5 736 1 618 1 730 1 604 1 935 1
217 0 5 737 1 861 1 586 1 794 1 763 1
218 0 5 738 1 957 1 836 1 599 1 994 1
219 0 5 739 1 827 1 703 1 833 1 902 1
220 0 5 740 1 782 1 1003 1 614 1 909 1
221 0 5 741 1 844 1 1021 1 718 1 640 1
222 0 5 742 1 887 1 865 1 579 1 717 1
223 0 5 743 1 797 1 521 1 770 1 538 1
224 0 5 744 1 916 1 544 1 583 1 940 1
225 0 5 745 1 751 1 612 1 655 1 690 1
226 0 5 746 1 886 1 715 1 799 1 646 1
227 0 5 747 1 660 1 828 1 917 1 898 1
228 0 5 748 1 521 1 797 1 770 1 743 1
229 0 5 749 1 918 1 983 1 633 1 876 1
230 0 5 750 1 531 1 971 1 870 1 580 1
231 0 5 751 1 738 1 836 1 957 1 765 1
232 0 5 752 1 548 1 986 1 545 1 834 1
233 0 5 753 1 984 1 830 1 863 1 718 1
234 0 5 754 1 596 1 993 1 826 1 697 1
235 0 5 755 1 1005 1 622 1 724 1 683 1
236 0 5 756 1 946 1 652 1 641 1 861 1
237 0 5 757 1 990 1 676 1 973 1 776 1
238 0 5 758 1 574 1 534 1 614 1 723 1
239 0 5 759 1 637 1 538 1 804 1 991 1
240 0 5 760 1 573 1 530 1 616 1 603 1
241 0 5 761 1 941 1 1001 1 711 1 868 1
242 0 5 762 1 862 1 878 1 914 1 965 1
243 0 5 763 1 794 1 825 1 929 1 790 1
244 0 5 764 1 582 1 605 1 535 1 963 1
245 0 5 765 1 629 1 957 1 631 1 836 1
246 0 5 766 1 778 1 889 1 670 1 701 1
247 0 5 767 1 572 1 652 1 864 1 1017 1
248 0 5 768 1 884 1 898 1 709 1 885 1
249 0 5 769 1 770 1 597 1 743 1 815 1
250 0 5 770 1 521 1 797 1 769 1 743 1
251 0 5 771 1 713 1 846 1 930 1 537 1
252 0 5 772 1 645 1 680 1 694 1 743 1
253 0 5 773 1 686 1 822 1 970 1 874 1
254 0 5 774 1 878 1 646 1 728 1 995 1
255 0 5 775 1 722 1 529 1 528 1 820 1
256 0 5 776 1 651 1 729 1 684 1 670 1
257 0 5 777 1 702 1 932 1 525 1 814 1
258 0 5 778 1 670 1 766 1 973 1 701 1
259 0 5 779 1 919 1 708 1 524 1 554 1
260 0 5 780 1 566 1 594 1 741 1 688 1
261 0 5 781 1 521 1 948 1 1019 1 770 1
262 0 5 782 1 909 1 839 1 523 1 561 1
263 0 5 783 1 906 1 949 1 628 1 909 1
264 0 5 784 1 615 1 979 1 1018 1 552 1
265 0 5 785 1 767 1 527 1 936 1 1017 1
266 0 5 786 1 870 1 952 1 841 1 845 1
267 0 5 787 1 1019 1 781 1 521 1 818 1
268 0 5 788 1 691 1 812 1 954 1 560 1
269 0 5 789 1 673 1 829 1 752 1 1015 1
270 0 5 790 1 970 1 773 1 822 1 874 1
271 0 5 791 1 1019 1 700 1 945 1 818 1
272 0 5 792 1 848 1 538 1 950 1 650 1
273 0 5 793 1 875 1 903 1 547 1 634 1
274 0 5 794 1 825 1 901 1 974 1 972 1
275 0 5 795 1 855 1 992 1 634 1 576 1
276 0 5 796 1 721 1 731 1 590 1 911 1
277 0 5 797 1 521 1 743 1 770 1 748 1
278 0 5 798 1 762 1 862 1 943 1 866 1
279 0 5 799 1 857 1 995 1 774 1 965 1
280 0 5 800 1 1014 1 717 1 619 1 827 1
281 0 5 801 1 997 1 814 1 681 1 956 1
282 0 5 802 1 676 1 633 1 776 1 670 1
283 0 5 803 1 954 1 856 1 599 1 992 1
284 0 5 804 1 637 1 991 1 597 1 583 1
285 0 5 805 1 523 1 853 1 639 1 574 1
286 0 5 806 1 847 1 939 1 916 1 988 1
287 0 5 807 1 777 1 702 1 708 1 999 1
288 0 5 808 1 967 1 732 1 904 1 701 1
289 0 5 809 1 909 1 949 1 628 1 783 1
290 0 5 810 1 926 1 624 1 562 1 1008 1
291 0 5 811 1 657 1 647 1 723 1 557 1
292 0 5 812 1 560 1 691 1 954 1 706 1
293 0 5 813 1 673 1 564 1 829 1 789 1
294 0 5 814 1 801 1 681 1 997 1 956 1
295 0 5 815 1 769 1 903 1 539 1 1021 1
296 0 5 816 1 705 1 899 1 636 1 1001 1
297 0 5 817 1 655 1 991 1 745 1 843 1
298 0 5 818 1 644 1 543 1 521 1 1000 1
299 0 5 819 1 719 1 969 1 740 1 642 1
300 0 5 820 1 923 1 999 1 981 1 573 1
301 0 5 821 1 641 1 824 1 861 1 554 1
302 0 5 822 1 970 1 550 1 1011 1 773 1
303 0 5 823 1 1004 1 553 1 835 1 720 1
304 0 5 824 1 617 1 681 1 821 1 586 1
305 0 5 825 1 591 1 622 1 974 1 794 1
306 0 5 826 1 993 1 962 1 626 1 858 1
307 0 5 827 1 894 1 877 1 905 1 619 1
308 0 5 828 1 709 1 747 1 917 1 660 1
309 0 5 829 1 727 1 834 1 673 1 968 1
310 0 5 830 1 753 1 863 1 718 1 984 1
311 0 5 831 1 921 1 583 1 718 1 741 1
312 0 5 832 1 998 1 1002 1 701 1 633 1
313 0 5 833 1 739 1 703 1 902 1 577 1
314 0 5 834 1 947 1 968 1 752 1 959 1
315 0 5 835 1 589 1 895 1 553 1 885 1
316 0 5 836 1 957 1 765 1 599 1 726 1
317 0 5 837 1 1016 1 841 1 689 1 987 1
318 0 5 838 1 700 1 1007 1 962 1 640 1
319 0 5 839 1 610 1 986 1 638 1 545 1
320 0 5 840 1 535 1 698 1 706 1 963 1
321 0 5 841 1 659 1 872 1 531 1 826 1
322 0 5 842 1 588 1 911 1 904 1 749 1
323 0 5 843 1 831 1 908 1 741 1 921 1
324 0 5 844 1 640 1 741 1 1021 1 688 1
325 0 5 845 1 952 1 664 1 1012 1 912 1
326 0 5 846 1 771 1 537 1 870 1 713 1
327 0 5 847 1 806 1 939 1 980 1 559 1
328 0 5 848 1 994 1 656 1 690 1 792 1
329 0 5 849 1 645 1 694 1 680 1 748 1
330 0 5 850 1 699 1 838 1 940 1 1007 1
331 0 5 851 1 896 1 760 1 889 1 1002 1
332 0 5 852 1 568 1 662 1 859 1 901 1
333 0 5 853 1 881 1 805 1 809 1 653 1
334 0 5 854 1 593 1 894 1 611 1 913 1
335 0 5 855 1 992 1 634 1 656 1 720 1
336 0 5 856 1 803 1 599 1 969 1 726 1
337 0 5 857 1 799 1 995 1 728 1 715 1
338 0 5 858 1 962 1 978 1 993 1 626 1
339 0 5 859 1 635 1 910 1 972 1 669 1
340 0 5 860 1 562 1 672 1 1017 1 773 1
341 0 5 861 1 737 1 821 1 824 1 641 1
342 0 5 862 1 860 1 798 1 914 1 912 1
343 0 5 863 1 557 1 890 1 565 1 811 1
344 0 5 864 1 866 1 733 1 572 1 929 1
345 0 5 865 1 595 1 602 1 913 1 575 1
346 0 5 866 1 943 1 733 1 798 1 864 1
347 0 5 867 1 543 1 1000 1 818 1 644 1
348 0 5 868 1 899 1 682 1 761 1 900 1
349 0 5 869 1 524 1 571 1 573 1 779 1
350 0 5 870 1 786 1 846 1 713 1 750 1
351 0 5 871 1 631 1 951 1 556 1 907 1
352 0 5 872 1 659 1 841 1 531 1 1008 1
353 0 5 873 1 578 1 930 1 857 1 646 1
354 0 5 874 1 790 1 929 1 822 1 773 1
355 0 5 875 1 793 1 942 1 1010 1 547 1
356 0 5 876 1 633 1 918 1 904 1 998 1
357 0 5 877 1 917 1 865 1 717 1 887 1
358 0 5 878 1 995 1 965 1 914 1 799 1
359 0 5 879 1 760 1 530 1 927 1 766 1
360 0 5 880 1 560 1 706 1 812 1 953 1
361 0 5 881 1 968 1 594 1 934 1 890 1
362 0 5 882 1 563 1 922 1 755 1 988 1
363 0 5 883 1 895 1 569 1 963 1 885 1
364 0 5 884 1 898 1 768 1 885 1 569 1
365 0 5 885 1 553 1 895 1 898 1 883 1
366 0 5 886 1 965 1 746 1 715 1 937 1
367 0 5 887 1 913 1 784 1 611 1 742 1
368 0 5 888 1 863 1 570 1 654 1 643 1
369 0 5 889 1 766 1 635 1 910 1 859 1
370 0 5 890 1 934 1 564 1 723 1 727 1
371 0 5 891 1 953 1 915 1 933 1 546 1
372 0 5 892 1 782 1 608 1 587 1 639 1
373 0 5 893 1 555 1 1018 1 611 1 913 1
374 0 5 894 1 877 1 827 1 854 1 913 1
375 0 5 895 1 885 1 883 1 569 1 963 1
376 0 5 896 1 851 1 889 1 731 1 1002 1
377 0 5 897 1 929 1 970 1 822 1 864 1
378 0 5 898 1 569 1 884 1 885 1 709 1
379 0 5 899 1 900 1 868 1 682 1 816 1
380 0 5 900 1 899 1 682 1 868 1 816 1
381 0 5 901 1 922 1 972 1 563 1 714 1
382 0 5 902 1 833 1 577 1 739 1 703 1
383 0 5 903 1 539 1 547 1 793 1 612 1
384 0 5 904 1 808 1 911 1 732 1 633 1
385 0 5 905 1 619 1 717 1 827 1 800 1
386 0 5 906 1 942 1 961 1 653 1 630 1
387 0 5 907 1 707 1 547 1 951 1 539 1
388 0 5 908 1 710 1 921 1 753 1 831 1
389 0 5 909 1 949 1 783 1 653 1 782 1
390 0 5 910 1 948 1 967 1 787 1 859 1
391 0 5 911 1 842 1 808 1 732 1 889 1
392 0 5 912 1 585 1 964 1 672 1 845 1
393 0 5 913 1 611 1 887 1 555 1 602 1
394 0 5 914 1 728 1 862 1 774 1 762 1
395 0 5 915 1 891 1 546 1 868 1 953 1
396 0 5 916 1 544 1 945 1 940 1 988 1
397 0 5 917 1 877 1 828 1 717 1 905 1
398 0 5 918 1 876 1 904 1 749 1 633 1
399 0 5 919 1 554 1 944 1 814 1 708 1
400 0 5 920 1 729 1 801 1 997 1 932 1
401 0 5 921 1 718 1 753 1 830 1 1006 1
402 0 5 922 1 652 1 755 1 794 1 946 1
403 0 5 923 1 981 1 684 1 999 1 525 1
404 0 5 924 1 638 1 985 1 1015 1 892 1
405 0 5 925 1 761 1 816 1 1001 1 705 1
406 0 5 926 1 600 1 964 1 558 1 931 1
407 0 5 927 1 536 1 530 1 766 1 879 1
408 0 5 928 1 956 1 681 1 801 1 714 1
409 0 5 929 1 874 1 763 1 1013 1 822 1
410 0 5 930 1 873 1 578 1 674 1 996 1
411 0 5 931 1 558 1 1008 1 964 1 624 1
412 0 5 932 1 807 1 814 1 997 1 708 1
413 0 5 933 1 649 1 665 1 542 1 768 1
414 0 5 934 1 594 1 657 1 627 1 881 1
415 0 5 935 1 792 1 538 1 694 1 541 1
416 0 5 936 1 785 1 527 1 847 1 882 1
417 0 5 937 1 746 1 585 1 646 1 912 1
418 0 5 938 1 537 1 750 1 580 1 1009 1
419 0 5 939 1 806 1 988 1 847 1 916 1
420 0 5 940 1 850 1 544 1 699 1 916 1
421 0 5 941 1 711 1 761 1 1001 1 546 1
422 0 5 942 1 875 1 961 1 1010 1 793 1
423 0 5 943 1 798 1 862 1 866 1 733 1
424 0 5 944 1 714 1 960 1 919 1 956 1
425 0 5 945 1 988 1 540 1 1019 1 787 1
426 0 5 946 1 652 1 756 1 922 1 737 1
427 0 5 947 1 752 1 959 1 834 1 561 1
428 0 5 948 1 521 1 787 1 781 1 1019 1
429 0 5 949 1 909 1 653 1 783 1 906 1
430 0 5 950 1 597 1 625 1 538 1 770 1
431 0 5 951 1 907 1 556 1 547 1 707 1
432 0 5 952 1 1009 1 845 1 1012 1 664 1
433 0 5 953 1 933 1 691 1 812 1 788 1
434 0 5 954 1 788 1 706 1 803 1 963 1
435 0 5 955 1 924 1 609 1 985 1 892 1
436 0 5 956 1 928 1 681 1 972 1 997 1
437 0 5 957 1 765 1 836 1 612 1 629 1
438 0 5 958 1 856 1 969 1 803 1 599 1
439 0 5 959 1 947 1 561 1 881 1 968 1
440 0 5 960 1 944 1 613 1 999 1 919 1
441 0 5 961 1 942 1 653 1 906 1 692 1
442 0 5 962 1 838 1 640 1 858 1 993 1
443 0 5 963 1 582 1 895 1 764 1 954 1
444 0 5 964 1 558 1 624 1 931 1 672 1
445 0 5 965 1 715 1 886 1 799 1 914 1
446 0 5 966 1 607 1 975 1 963 1 592 1
447 0 5 967 1 521 1 910 1 948 1 808 1
448 0 5 968 1 834 1 959 1 881 1 947 1
449 0 5 969 1 819 1 599 1 642 1 598 1
450 0 5 970 1 1013 1 773 1 822 1 897 1
451 0 5 971 1 1009 1 532 1 531 1 1012 1
452 0 5 972 1 669 1 859 1 928 1 974 1
453 0 5 973 1 757 1 704 1 676 1 670 1
454 0 5 974 1 540 1 716 1 787 1 859 1
455 0 5 975 1 592 1 656 1 966 1 589 1
456 0 5 976 1 832 1 998 1 633 1 876 1
457 0 5 977 1 643 1 565 1 557 1 989 1
458 0 5 978 1 626 1 993 1 1008 1 858 1
459 0 5 979 1 854 1 925 1 593 1 611 1
460 0 5 980 1 622 1 678 1 671 1 755 1
461 0 5 981 1 923 1 684 1 704 1 648 1
462 0 5 982 1 731 1 1002 1 732 1 796 1
463 0 5 983 1 749 1 588 1 1018 1 701 1
464 0 5 984 1 647 1 1006 1 718 1 631 1
465 0 5 985 1 639 1 614 1 574 1 892 1
466 0 5 986 1 839 1 545 1 548 1 610 1
467 0 5 987 1 689 1 837 1 1016 1 931 1
468 0 5 988 1 755 1 847 1 540 1 945 1
469 0 5 989 1 565 1 697 1 584 1 606 1
470 0 5 990 1 802 1 757 1 676 1 766 1
471 0 5 991 1 831 1 908 1 583 1 655 1
472 0 5 992 1 975 1 954 1 656 1 795 1
473 0 5 993 1 754 1 826 1 978 1 626 1
474 0 5 994 1 656 1 634 1 576 1 663 1
475 0 5 995 1 799 1 857 1 728 1 686 1
476 0 5 996 1 674 1 578 1 873 1 930 1
477 0 5 997 1 920 1 956 1 928 1 824 1
478 0 5 998 1 1018 1 832 1 876 1 633 1
479 0 5 999 1 932 1 920 1 923 1 708 1
480 0 5 1000 1 744 1 945 1 916 1 583 1
481 0 5 1001 1 761 1 899 1 816 1 675 1
482 0 5 1002 1 590 1 701 1 766 1 732 1
483 0 5 1003 1 740 1 630 1 653 1 642 1
484 0 5 1004 1 533 1 522 1 720 1 542 1
485 0 5 1005 1 724 1 683 1 755 1 678 1
486 0 5 1006 1 1021 1 625 1 612 1 815 1
487 0 5 1007 1 679 1 962 1 640 1 838 1
488 0 5 1008 1 978 1 810 1 931 1 841 1
489 0 5 1009 1 664 1 971 1 952 1 786 1
490 0 5 1010 1 961 1 942 1 875 1 692 1
491 0 5 1011 1 897 1 733 1 550 1 822 1
492 0 5 1012 1 971 1 952 1 872 1 845 1
493 0 5 1013 1 686 1 874 1 929 1 970 1
494 0 5 1014 1 717 1 709 1 800 1 828 1
495 0 5 1015 1 608 1 789 1 587 1 752 1
496 0 5 1016 1 837 1 841 1 558 1 931 1
497 0 5 1017 1 526 1 550 1 733 1 572 1
498 0 5 1018 1 893 1 555 1 887 1 913 1
499 0 5 1019 1 781 1 521 1 948 1 791 1
500 0 5 1020 1 534 1 614 1 758 1 629 1
501 0 5 1021 1 741 1 815 1 871 1 780 1
502 0 5 1022 0 521 1 1022 1 1023 1 1024 1
503 0 5 1023 0 521 1 1022 1 1023 1 1024 1
504 0 5 1024 0 521 1 1022 1 1023 1 1024 1
505 0 5 1025 0 521 1 1022 1 1023 1 1024 1
506 0 5 1026 0 521 1 1022 1 1023 1 1024 1
507 0 5 1027 0 521 1 1022 1 1023 1 1024 1
508 0 5 1028 0 521 1 1022 1 1023 1 1024 1
509 0 5 1029 0 521 1 1022 1 1023 1 1024 1
510 0 5 1030 0 521 1 1022 1 1023 1 1024 1
511 0 5 1031 0 521 1 1022 1 1023 1 1024 1
512 0 5 1032 0 521 1 1022 1 1023 1 1024 1
513 0 5 1033 0 521 1 1022 1 1023 1 1024 1
514 0 5 1034 0 521 1 1022 1 1023 1 1024 1
515 0 5 1035 0 521 1 1022 1 1023 1 1024 1
516 0 5 1036 0 521 1 1022 1 1023 1 1024 1
517 0 5 1037 0 521 1 1022 1 1023 1 1024 1
518 0 5 1038 0 521 1 1022 1 1023 1 1024 1
519 0 5 1039 0 521 1 1022 1 1023 1 1024 1
520 0 5 1040 0 521 1 1022 1 1023 1 1024 1
521 0 5 1 0 520 1 519 1 518 1 517 1
522 0 5 2 1 13 1 200 1 484 1 441 1
523 0 5 3 1 285 1 333 1 361 1 448 1
524 0 5 4 1 349 1 259 1 188 1 53 1
525 0 5 5 1 215 1 479 1 403 1 182 1
526 0 5 6 1 497 1 30 1 213 1 340 1
527 0 5 7 1 416 1 265 1 100 1 61 1
528 0 5 8 1 214 1 255 1 202 1 300 1
529 0 5 9 1 8 1 255 1 461 1 202 1
530 0 5 10 1 83 1 240 1 150 1 359 1
531 0 5 11 1 230 1 451 1 321 1 352 1
532 0 5 12 1 50 1 451 1 138 1 489 1
533 0 5 13 1 484 1 2 1 200 1 441 1
534 0 5 14 1 500 1 54 1 238 1 109 1
535 0 5 15 1 320 1 178 1 62 1 85 1
536 0 5 16 1 407 1 312 1 456 1 258 1
537 0 5 17 1 326 1 418 1 350 1 251 1
538 0 5 18 1 239 1 272 1 430 1 415 1
539 0 5 19 1 187 1 387 1 92 1 27 1
540 0 5 20 1 454 1 468 1 425 1 71 1
541 0 5 21 1 84 1 210 1 415 1 29 1
542 0 5 22 1 145 1 171 1 413 1 484 1
543 0 5 23 1 347 1 298 1 124 1 480 1
544 0 5 24 1 396 1 224 1 63 1 420 1
545 0 5 25 1 28 1 232 1 466 1 41 1
546 0 5 26 1 191 1 395 1 371 1 241 1
547 0 5 27 1 387 1 187 1 431 1 92 1
548 0 5 28 1 232 1 25 1 466 1 262 1
549 0 5 29 1 205 1 21 1 174 1 59 1
550 0 5 30 1 302 1 497 1 377 1 204 1
551 0 5 31 1 48 1 332 1 43 1 339 1
552 0 5 32 1 264 1 95 1 367 1 55 1
553 0 5 33 1 365 1 375 1 315 1 303 1
554 0 5 34 1 399 1 188 1 301 1 259 1
555 0 5 35 1 373 1 393 1 367 1 91 1
556 0 5 36 1 111 1 351 1 431 1 27 1
557 0 5 37 1 343 1 123 1 457 1 291 1
558 0 5 38 1 411 1 444 1 104 1 169 1
559 0 5 39 1 163 1 327 1 158 1 460 1
560 0 5 40 1 292 1 360 1 186 1 434 1
561 0 5 41 1 28 1 25 1 439 1 262 1
562 0 5 42 1 47 1 340 1 61 1 147 1
563 0 5 43 1 31 1 362 1 381 1 332 1
564 0 5 44 1 293 1 465 1 370 1 343 1
565 0 5 45 1 469 1 457 1 37 1 101 1
566 0 5 46 1 168 1 260 1 107 1 324 1
567 0 5 47 1 147 1 61 1 152 1 340 1
568 0 5 48 1 332 1 176 1 142 1 362 1
569 0 5 49 1 378 1 363 1 375 1 443 1
570 0 5 50 1 12 1 368 1 138 1 45 1
571 0 5 51 1 167 1 142 1 349 1 194 1
572 0 5 52 1 247 1 344 1 213 1 497 1
573 0 5 53 1 240 1 96 1 83 1 349 1
574 0 5 54 1 14 1 238 1 333 1 285 1
575 0 5 55 1 82 1 146 1 29 1 201 1
576 0 5 56 1 92 1 105 1 170 1 474 1
577 0 5 57 1 155 1 173 1 382 1 494 1
578 0 5 58 1 126 1 353 1 410 1 254 1
579 0 5 59 1 85 1 205 1 222 1 178 1
580 0 5 60 1 175 1 418 1 230 1 12 1
581 0 5 61 1 42 1 47 1 147 1 159 1
582 0 5 62 1 244 1 443 1 320 1 85 1
583 0 5 63 1 124 1 77 1 224 1 192 1
584 0 5 64 1 469 1 496 1 177 1 317 1
585 0 5 65 1 392 1 417 1 126 1 325 1
586 0 5 66 1 97 1 217 1 301 1 304 1
587 0 5 67 1 88 1 118 1 495 1 372 1
588 0 5 68 1 322 1 463 1 229 1 181 1
589 0 5 69 1 315 1 455 1 112 1 143 1
590 0 5 70 1 482 1 211 1 212 1 276 1
591 0 5 71 1 102 1 305 1 460 1 274 1
592 0 5 72 1 455 1 143 1 136 1 446 1
593 0 5 73 1 334 1 91 1 157 1 393 1
594 0 5 74 1 414 1 137 1 361 1 351 1
595 0 5 75 1 345 1 201 1 21 1 222 1
596 0 5 76 1 234 1 101 1 177 1 473 1
597 0 5 77 1 192 1 63 1 430 1 124 1
598 0 5 78 1 122 1 449 1 500 1 110 1
599 0 5 79 1 449 1 336 1 316 1 206 1
600 0 5 80 1 406 1 151 1 39 1 460 1
601 0 5 81 1 131 1 128 1 184 1 96 1
602 0 5 82 1 345 1 75 1 201 1 55 1
603 0 5 83 1 96 1 10 1 53 1 240 1
604 0 5 84 1 210 1 216 1 21 1 165 1
605 0 5 85 1 178 1 15 1 244 1 62 1
606 0 5 86 1 107 1 123 1 469 1 457 1
607 0 5 87 1 446 1 308 1 69 1 72 1
608 0 5 88 1 495 1 372 1 67 1 118 1
609 0 5 89 1 435 1 119 1 88 1 67 1
610 0 5 90 1 319 1 466 1 25 1 262 1
611 0 5 91 1 393 1 35 1 367 1 373 1
612 0 5 92 1 56 1 105 1 437 1 19 1
613 0 5 93 1 115 1 440 1 424 1 349 1
614 0 5 94 1 54 1 14 1 500 1 238 1
615 0 5 95 1 264 1 32 1 367 1 222 1
616 0 5 96 1 53 1 83 1 240 1 246 1
617 0 5 97 1 304 1 66 1 301 1 182 1
618 0 5 98 1 1 1 216 1 276 1 211 1
619 0 5 99 1 385 1 157 1 280 1 494 1
620 0 5 100 1 7 1 147 1 61 1 47 1
621 0 5 101 1 45 1 76 1 168 1 177 1
622 0 5 102 1 460 1 235 1 305 1 151 1
623 0 5 103 1 226 1 126 1 58 1 251 1
624 0 5 104 1 290 1 444 1 42 1 411 1
625 0 5 105 1 170 1 430 1 56 1 92 1
626 0 5 106 1 458 1 473 1 338 1 321 1
627 0 5 107 1 207 1 86 1 414 1 137 1
628 0 5 108 1 41 1 289 1 262 1 263 1
629 0 5 109 1 245 1 110 1 500 1 316 1
630 0 5 110 1 109 1 483 1 206 1 122 1
631 0 5 111 1 351 1 36 1 464 1 127 1
632 0 5 112 1 143 1 72 1 56 1 455 1
633 0 5 113 1 356 1 282 1 229 1 398 1
634 0 5 114 1 136 1 474 1 335 1 112 1
635 0 5 115 1 369 1 339 1 93 1 332 1
636 0 5 116 1 162 1 296 1 185 1 380 1
637 0 5 117 1 284 1 239 1 170 1 18 1
638 0 5 118 1 404 1 232 1 466 1 262 1
639 0 5 119 1 465 1 372 1 285 1 94 1
640 0 5 120 1 324 1 179 1 442 1 221 1
641 0 5 121 1 301 1 194 1 236 1 34 1
642 0 5 122 1 206 1 199 1 449 1 483 1
643 0 5 123 1 457 1 37 1 368 1 45 1
644 0 5 124 1 298 1 1 1 23 1 347 1
645 0 5 125 1 329 1 252 1 160 1 146 1
646 0 5 126 1 195 1 254 1 103 1 417 1
647 0 5 127 1 203 1 464 1 291 1 137 1
648 0 5 128 1 184 1 461 1 131 1 403 1
649 0 5 129 1 413 1 433 1 248 1 371 1
650 0 5 130 1 87 1 272 1 252 1 72 1
651 0 5 131 1 128 1 256 1 81 1 184 1
652 0 5 132 1 426 1 402 1 247 1 236 1
653 0 5 133 1 429 1 483 1 441 1 110 1
654 0 5 134 1 368 1 343 1 310 1 233 1
655 0 5 135 1 297 1 471 1 225 1 388 1
656 0 5 136 1 474 1 328 1 335 1 472 1
657 0 5 137 1 291 1 414 1 107 1 127 1
658 0 5 138 1 50 1 12 1 175 1 418 1
659 0 5 139 1 352 1 321 1 159 1 266 1
660 0 5 140 1 227 1 308 1 189 1 248 1
661 0 5 141 1 18 1 239 1 249 1 105 1
662 0 5 142 1 176 1 332 1 48 1 51 1
663 0 5 143 1 72 1 112 1 474 1 455 1
664 0 5 144 1 489 1 432 1 325 1 451 1
665 0 5 145 1 171 1 413 1 22 1 433 1
666 0 5 146 1 55 1 201 1 82 1 276 1
667 0 5 147 1 100 1 61 1 7 1 152 1
668 0 5 148 1 443 1 186 1 62 1 178 1
669 0 5 149 1 452 1 381 1 31 1 339 1
670 0 5 150 1 258 1 10 1 156 1 246 1
671 0 5 151 1 158 1 39 1 460 1 163 1
672 0 5 152 1 47 1 42 1 340 1 444 1
673 0 5 153 1 269 1 293 1 309 1 44 1
674 0 5 154 1 476 1 410 1 103 1 58 1
675 0 5 155 1 173 1 481 1 116 1 405 1
676 0 5 156 1 282 1 237 1 453 1 470 1
677 0 5 157 1 73 1 334 1 197 1 385 1
678 0 5 158 1 39 1 163 1 460 1 327 1
679 0 5 159 1 487 1 492 1 61 1 352 1
680 0 5 160 1 174 1 252 1 146 1 329 1
681 0 5 161 1 436 1 294 1 304 1 281 1
682 0 5 162 1 380 1 116 1 348 1 173 1
683 0 5 163 1 204 1 39 1 485 1 327 1
684 0 5 164 1 215 1 461 1 403 1 256 1
685 0 5 165 1 1 1 98 1 288 1 447 1
686 0 5 166 1 253 1 493 1 208 1 450 1
687 0 5 167 1 196 1 48 1 43 1 31 1
688 0 5 168 1 101 1 45 1 107 1 46 1
689 0 5 169 1 467 1 193 1 350 1 38 1
690 0 5 170 1 117 1 239 1 328 1 272 1
691 0 5 171 1 268 1 292 1 434 1 433 1
692 0 5 172 1 200 1 490 1 441 1 2 1
693 0 5 173 1 116 1 155 1 162 1 481 1
694 0 5 174 1 329 1 29 1 252 1 21 1
695 0 5 175 1 138 1 60 1 50 1 418 1
696 0 5 176 1 1 1 331 1 165 1 142 1
697 0 5 177 1 64 1 469 1 11 1 76 1
698 0 5 178 1 15 1 320 1 85 1 62 1
699 0 5 179 1 330 1 420 1 63 1 318 1
700 0 5 180 1 425 1 271 1 396 1 24 1
701 0 5 181 1 482 1 212 1 70 1 246 1
702 0 5 182 1 257 1 287 1 412 1 5 1
703 0 5 183 1 219 1 313 1 494 1 348 1
704 0 5 184 1 128 1 461 1 453 1 10 1
705 0 5 185 1 296 1 405 1 481 1 116 1
706 0 5 186 1 40 1 434 1 148 1 360 1
707 0 5 187 1 387 1 27 1 19 1 431 1
708 0 5 188 1 4 1 259 1 34 1 479 1
709 0 5 189 1 308 1 494 1 378 1 178 1
710 0 5 190 1 401 1 203 1 501 1 74 1
711 0 5 191 1 421 1 241 1 360 1 26 1
712 0 5 192 1 77 1 124 1 63 1 430 1
713 0 5 193 1 251 1 350 1 126 1 326 1
714 0 5 194 1 51 1 424 1 381 1 426 1
715 0 5 195 1 445 1 226 1 366 1 126 1
716 0 5 196 1 71 1 454 1 20 1 425 1
717 0 5 197 1 494 1 385 1 280 1 157 1
718 0 5 198 1 401 1 464 1 310 1 221 1
719 0 5 199 1 299 1 483 1 220 1 122 1
720 0 5 200 1 2 1 13 1 335 1 490 1
721 0 5 201 1 276 1 75 1 29 1 55 1
722 0 5 202 1 255 1 300 1 8 1 9 1
723 0 5 203 1 245 1 370 1 238 1 291 1
724 0 5 204 1 485 1 217 1 235 1 163 1
725 0 5 205 1 59 1 29 1 21 1 174 1
726 0 5 206 1 79 1 122 1 110 1 316 1
727 0 5 207 1 137 1 309 1 370 1 44 1
728 0 5 208 1 394 1 254 1 166 1 242 1
729 0 5 209 1 400 1 131 1 256 1 81 1
730 0 5 210 1 216 1 84 1 21 1 165 1
731 0 5 211 1 276 1 376 1 212 1 462 1
732 0 5 212 1 211 1 70 1 391 1 482 1
733 0 5 213 1 6 1 344 1 497 1 491 1
734 0 5 214 1 10 1 8 1 453 1 83 1
735 0 5 215 1 5 1 164 1 9 1 461 1
736 0 5 216 1 1 1 21 1 210 1 174 1
737 0 5 217 1 341 1 204 1 132 1 426 1
738 0 5 218 1 231 1 136 1 316 1 114 1
739 0 5 219 1 313 1 57 1 382 1 155 1
740 0 5 220 1 483 1 199 1 133 1 78 1
741 0 5 221 1 501 1 324 1 120 1 260 1
742 0 5 222 1 95 1 75 1 367 1 197 1
743 0 5 223 1 125 1 18 1 160 1 430 1
744 0 5 224 1 480 1 63 1 23 1 347 1
745 0 5 225 1 135 1 297 1 117 1 141 1
746 0 5 226 1 366 1 417 1 126 1 103 1
747 0 5 227 1 189 1 308 1 494 1 378 1
748 0 5 228 1 125 1 160 1 329 1 146 1
749 0 5 229 1 463 1 398 1 393 1 68 1
750 0 5 230 1 11 1 418 1 451 1 350 1
751 0 5 231 1 225 1 316 1 218 1 437 1
752 0 5 232 1 427 1 269 1 314 1 153 1
753 0 5 233 1 310 1 198 1 401 1 190 1
754 0 5 234 1 76 1 473 1 177 1 11 1
755 0 5 235 1 468 1 402 1 460 1 362 1
756 0 5 236 1 194 1 426 1 121 1 424 1
757 0 5 237 1 453 1 81 1 470 1 184 1
758 0 5 238 1 54 1 14 1 500 1 245 1
759 0 5 239 1 284 1 18 1 415 1 124 1
760 0 5 240 1 331 1 359 1 53 1 246 1
761 0 5 241 1 481 1 405 1 421 1 348 1
762 0 5 242 1 278 1 208 1 342 1 394 1
763 0 5 243 1 66 1 409 1 217 1 97 1
764 0 5 244 1 62 1 443 1 85 1 320 1
765 0 5 245 1 437 1 316 1 109 1 238 1
766 0 5 246 1 369 1 258 1 482 1 150 1
767 0 5 247 1 265 1 52 1 344 1 497 1
768 0 5 248 1 129 1 364 1 378 1 49 1
769 0 5 249 1 295 1 430 1 192 1 77 1
770 0 5 250 1 192 1 77 1 430 1 249 1
771 0 5 251 1 326 1 193 1 17 1 103 1
772 0 5 252 1 130 1 87 1 59 1 29 1
773 0 5 253 1 166 1 450 1 340 1 302 1
774 0 5 254 1 208 1 195 1 38 1 394 1
775 0 5 255 1 9 1 8 1 202 1 300 1
776 0 5 256 1 164 1 156 1 184 1 131 1
777 0 5 257 1 287 1 5 1 412 1 479 1
778 0 5 258 1 246 1 150 1 482 1 10 1
779 0 5 259 1 188 1 4 1 349 1 121 1
780 0 5 260 1 46 1 198 1 501 1 221 1
781 0 5 261 1 499 1 267 1 425 1 20 1
782 0 5 262 1 372 1 220 1 28 1 67 1
783 0 5 263 1 389 1 429 1 108 1 289 1
784 0 5 264 1 32 1 367 1 222 1 459 1
785 0 5 265 1 416 1 247 1 7 1 497 1
786 0 5 266 1 350 1 144 1 432 1 11 1
787 0 5 267 1 20 1 298 1 425 1 454 1
788 0 5 268 1 40 1 434 1 360 1 433 1
789 0 5 269 1 153 1 495 1 293 1 88 1
790 0 5 270 1 354 1 302 1 409 1 253 1
791 0 5 271 1 180 1 425 1 63 1 24 1
792 0 5 272 1 174 1 415 1 18 1 59 1
793 0 5 273 1 355 1 490 1 422 1 383 1
794 0 5 274 1 217 1 402 1 305 1 381 1
795 0 5 275 1 114 1 136 1 472 1 474 1
796 0 5 276 1 98 1 84 1 146 1 201 1
797 0 5 277 1 223 1 250 1 228 1 98 1
798 0 5 278 1 423 1 342 1 152 1 346 1
799 0 5 279 1 475 1 445 1 337 1 358 1
800 0 5 280 1 197 1 99 1 494 1 385 1
801 0 5 281 1 294 1 161 1 400 1 436 1
802 0 5 282 1 470 1 156 1 256 1 113 1
803 0 5 283 1 336 1 434 1 438 1 268 1
804 0 5 284 1 1 1 239 1 117 1 77 1
805 0 5 285 1 119 1 333 1 54 1 203 1
806 0 5 286 1 419 1 327 1 330 1 318 1
807 0 5 287 1 412 1 5 1 188 1 479 1
808 0 5 288 1 384 1 391 1 212 1 447 1
809 0 5 289 1 133 1 333 1 429 1 389 1
810 0 5 290 1 61 1 488 1 42 1 80 1
811 0 5 291 1 127 1 203 1 37 1 464 1
812 0 5 292 1 268 1 40 1 360 1 434 1
813 0 5 293 1 44 1 465 1 370 1 435 1
814 0 5 294 1 281 1 412 1 161 1 399 1
815 0 5 295 1 501 1 383 1 19 1 486 1
816 0 5 296 1 185 1 481 1 405 1 380 1
817 0 5 297 1 284 1 63 1 249 1 239 1
818 0 5 298 1 23 1 1 1 124 1 347 1
819 0 5 299 1 449 1 122 1 206 1 220 1
820 0 5 300 1 202 1 255 1 403 1 461 1
821 0 5 301 1 34 1 341 1 121 1 304 1
822 0 5 302 1 6 1 450 1 253 1 377 1
823 0 5 303 1 22 1 129 1 33 1 13 1
824 0 5 304 1 97 1 301 1 34 1 161 1
825 0 5 305 1 274 1 102 1 217 1 235 1
826 0 5 306 1 473 1 234 1 321 1 177 1
827 0 5 307 1 219 1 99 1 385 1 374 1
828 0 5 308 1 140 1 189 1 494 1 227 1
829 0 5 309 1 153 1 269 1 293 1 232 1
830 0 5 310 1 198 1 233 1 37 1 401 1
831 0 5 311 1 471 1 323 1 401 1 224 1
832 0 5 312 1 456 1 478 1 462 1 16 1
833 0 5 313 1 382 1 348 1 219 1 162 1
834 0 5 314 1 448 1 427 1 309 1 232 1
835 0 5 315 1 33 1 375 1 69 1 200 1
836 0 5 316 1 437 1 218 1 231 1 206 1
837 0 5 317 1 169 1 496 1 467 1 350 1
838 0 5 318 1 442 1 179 1 120 1 330 1
839 0 5 319 1 466 1 262 1 25 1 118 1
840 0 5 320 1 186 1 15 1 178 1 62 1
841 0 5 321 1 139 1 266 1 11 1 352 1
842 0 5 322 1 391 1 181 1 68 1 229 1
843 0 5 323 1 224 1 63 1 297 1 271 1
844 0 5 324 1 221 1 120 1 501 1 168 1
845 0 5 325 1 47 1 432 1 492 1 144 1
846 0 5 326 1 17 1 350 1 251 1 417 1
847 0 5 327 1 286 1 468 1 419 1 460 1
848 0 5 328 1 272 1 141 1 474 1 170 1
849 0 5 329 1 160 1 146 1 55 1 29 1
850 0 5 330 1 420 1 179 1 63 1 24 1
851 0 5 331 1 376 1 176 1 165 1 211 1
852 0 5 332 1 142 1 51 1 48 1 167 1
853 0 5 333 1 3 1 285 1 109 1 54 1
854 0 5 334 1 459 1 91 1 393 1 374 1
855 0 5 335 1 275 1 472 1 114 1 136 1
856 0 5 336 1 438 1 283 1 79 1 449 1
857 0 5 337 1 279 1 475 1 445 1 358 1
858 0 5 338 1 106 1 159 1 458 1 473 1
859 0 5 339 1 115 1 332 1 31 1 149 1
860 0 5 340 1 342 1 6 1 42 1 493 1
861 0 5 341 1 217 1 121 1 301 1 236 1
862 0 5 342 1 242 1 278 1 423 1 394 1
863 0 5 343 1 368 1 310 1 134 1 233 1
864 0 5 344 1 52 1 377 1 247 1 213 1
865 0 5 345 1 75 1 222 1 59 1 29 1
866 0 5 346 1 344 1 52 1 423 1 278 1
867 0 5 347 1 1 1 480 1 284 1 224 1
868 0 5 348 1 380 1 162 1 481 1 26 1
869 0 5 349 1 4 1 51 1 115 1 53 1
870 0 5 350 1 326 1 266 1 144 1 230 1
871 0 5 351 1 111 1 36 1 501 1 127 1
872 0 5 352 1 321 1 159 1 139 1 11 1
873 0 5 353 1 410 1 154 1 58 1 476 1
874 0 5 354 1 409 1 493 1 166 1 253 1
875 0 5 355 1 422 1 490 1 273 1 172 1
876 0 5 356 1 398 1 113 1 282 1 229 1
877 0 5 357 1 374 1 397 1 385 1 157 1
878 0 5 358 1 254 1 242 1 208 1 195 1
879 0 5 359 1 376 1 407 1 240 1 331 1
880 0 5 360 1 148 1 186 1 40 1 433 1
881 0 5 361 1 333 1 414 1 3 1 439 1
882 0 5 362 1 43 1 31 1 381 1 419 1
883 0 5 363 1 49 1 375 1 443 1 378 1
884 0 5 364 1 248 1 378 1 129 1 49 1
885 0 5 365 1 375 1 49 1 378 1 33 1
886 0 5 366 1 226 1 445 1 242 1 394 1
887 0 5 367 1 222 1 393 1 35 1 32 1
888 0 5 368 1 134 1 343 1 50 1 45 1
889 0 5 369 1 376 1 331 1 246 1 70 1
890 0 5 370 1 207 1 107 1 137 1 203 1
891 0 5 371 1 395 1 360 1 433 1 292 1
892 0 5 372 1 67 1 118 1 119 1 262 1
893 0 5 373 1 498 1 264 1 367 1 478 1
894 0 5 374 1 307 1 334 1 157 1 459 1
895 0 5 375 1 363 1 443 1 49 1 315 1
896 0 5 376 1 331 1 211 1 212 1 70 1
897 0 5 377 1 491 1 450 1 213 1 302 1
898 0 5 378 1 364 1 248 1 49 1 365 1
899 0 5 379 1 348 1 296 1 380 1 481 1
900 0 5 380 1 379 1 348 1 296 1 481 1
901 0 5 381 1 43 1 31 1 274 1 332 1
902 0 5 382 1 57 1 313 1 219 1 173 1
903 0 5 383 1 19 1 27 1 387 1 187 1
904 0 5 384 1 113 1 398 1 356 1 322 1
905 0 5 385 1 157 1 99 1 197 1 280 1
906 0 5 386 1 263 1 441 1 429 1 422 1
907 0 5 387 1 431 1 27 1 187 1 351 1
908 0 5 388 1 323 1 471 1 135 1 401 1
909 0 5 389 1 289 1 429 1 262 1 220 1
910 0 5 390 1 339 1 369 1 212 1 447 1
911 0 5 391 1 181 1 212 1 276 1 322 1
912 0 5 392 1 152 1 342 1 417 1 65 1
913 0 5 393 1 35 1 367 1 373 1 201 1
914 0 5 394 1 195 1 242 1 342 1 38 1
915 0 5 395 1 26 1 371 1 360 1 433 1
916 0 5 396 1 224 1 24 1 480 1 286 1
917 0 5 397 1 140 1 197 1 308 1 385 1
918 0 5 398 1 229 1 356 1 113 1 478 1
919 0 5 399 1 259 1 424 1 34 1 440 1
920 0 5 400 1 477 1 479 1 131 1 209 1
921 0 5 401 1 311 1 388 1 190 1 221 1
922 0 5 402 1 381 1 362 1 426 1 132 1
923 0 5 403 1 461 1 300 1 128 1 479 1
924 0 5 404 1 435 1 465 1 89 1 67 1
925 0 5 405 1 459 1 185 1 481 1 241 1
926 0 5 406 1 290 1 444 1 80 1 488 1
927 0 5 407 1 359 1 212 1 16 1 10 1
928 0 5 408 1 436 1 161 1 452 1 194 1
929 0 5 409 1 377 1 493 1 344 1 450 1
930 0 5 410 1 154 1 251 1 58 1 353 1
931 0 5 411 1 38 1 104 1 444 1 488 1
932 0 5 412 1 479 1 182 1 5 1 257 1
933 0 5 413 1 433 1 145 1 371 1 364 1
934 0 5 414 1 370 1 107 1 361 1 137 1
935 0 5 415 1 21 1 216 1 239 1 272 1
936 0 5 416 1 265 1 362 1 286 1 327 1
937 0 5 417 1 65 1 126 1 195 1 392 1
938 0 5 418 1 60 1 230 1 17 1 489 1
939 0 5 419 1 286 1 327 1 362 1 224 1
940 0 5 420 1 24 1 396 1 63 1 224 1
941 0 5 421 1 241 1 197 1 191 1 95 1
942 0 5 422 1 441 1 490 1 355 1 133 1
943 0 5 423 1 346 1 278 1 344 1 52 1
944 0 5 424 1 440 1 399 1 194 1 51 1
945 0 5 425 1 480 1 396 1 468 1 23 1
946 0 5 426 1 236 1 194 1 402 1 132 1
947 0 5 427 1 439 1 314 1 448 1 232 1
948 0 5 428 1 261 1 390 1 267 1 499 1
949 0 5 429 1 389 1 289 1 263 1 133 1
950 0 5 430 1 18 1 170 1 272 1 77 1
951 0 5 431 1 36 1 351 1 387 1 27 1
952 0 5 432 1 325 1 266 1 492 1 144 1
953 0 5 433 1 371 1 360 1 292 1 395 1
954 0 5 434 1 283 1 443 1 186 1 292 1
955 0 5 435 1 89 1 404 1 67 1 88 1
956 0 5 436 1 161 1 408 1 281 1 477 1
957 0 5 437 1 316 1 218 1 245 1 231 1
958 0 5 438 1 283 1 336 1 449 1 79 1
959 0 5 439 1 448 1 427 1 314 1 3 1
960 0 5 440 1 93 1 424 1 399 1 259 1
961 0 5 441 1 490 1 206 1 422 1 133 1
962 0 5 442 1 120 1 338 1 318 1 473 1
963 0 5 443 1 62 1 434 1 375 1 363 1
964 0 5 444 1 104 1 152 1 38 1 411 1
965 0 5 445 1 366 1 358 1 242 1 417 1
966 0 5 446 1 69 1 375 1 443 1 363 1
967 0 5 447 1 288 1 390 1 391 1 212 1
968 0 5 448 1 361 1 314 1 309 1 3 1
969 0 5 449 1 79 1 199 1 438 1 336 1
970 0 5 450 1 302 1 377 1 6 1 253 1
971 0 5 451 1 492 1 489 1 230 1 432 1
972 0 5 452 1 339 1 149 1 381 1 115 1
973 0 5 453 1 81 1 10 1 150 1 258 1
974 0 5 454 1 149 1 305 1 274 1 452 1
975 0 5 455 1 472 1 72 1 136 1 446 1
976 0 5 456 1 16 1 312 1 407 1 229 1
977 0 5 457 1 123 1 37 1 45 1 368 1
978 0 5 458 1 488 1 338 1 159 1 473 1
979 0 5 459 1 91 1 264 1 334 1 373 1
980 0 5 460 1 151 1 158 1 327 1 468 1
981 0 5 461 1 403 1 300 1 128 1 215 1
982 0 5 462 1 165 1 98 1 447 1 288 1
983 0 5 463 1 68 1 229 1 276 1 312 1
984 0 5 464 1 233 1 203 1 198 1 401 1
985 0 5 465 1 94 1 54 1 14 1 89 1
986 0 5 466 1 25 1 232 1 262 1 28 1
987 0 5 467 1 193 1 169 1 350 1 411 1
988 0 5 468 1 425 1 419 1 362 1 396 1
989 0 5 469 1 86 1 457 1 45 1 50 1
990 0 5 470 1 237 1 156 1 258 1 453 1
991 0 5 471 1 284 1 77 1 63 1 239 1
992 0 5 472 1 335 1 136 1 283 1 434 1
993 0 5 473 1 106 1 234 1 338 1 458 1
994 0 5 474 1 328 1 136 1 218 1 114 1
995 0 5 475 1 358 1 254 1 337 1 208 1
996 0 5 476 1 58 1 154 1 103 1 410 1
997 0 5 477 1 281 1 294 1 161 1 400 1
998 0 5 478 1 312 1 456 1 113 1 498 1
999 0 5 479 1 300 1 53 1 440 1 131 1
1000 0 5 480 1 23 1 347 1 298 1 124 1
1001 0 5 481 1 405 1 185 1 241 1 296 1
1002 0 5 482 1 70 1 211 1 212 1 312 1
1003 0 5 483 1 110 1 220 1 199 1 122 1
1004 0 5 484 1 303 1 200 1 2 1 336 1
1005 0 5 485 1 235 1 402 1 460 1 274 1
1006 0 5 486 1 105 1 92 1 464 1 401 1
1007 0 5 487 1 179 1 318 1 120 1 159 1
1008 0 5 488 1 139 1 411 1 458 1 38 1
1009 0 5 489 1 144 1 451 1 432 1 418 1
1010 0 5 490 1 172 1 200 1 422 1 355 1
1011 0 5 491 1 30 1 213 1 204 1 302 1
1012 0 5 492 1 432 1 451 1 325 1 266 1
1013 0 5 493 1 166 1 450 1 253 1 409 1
1014 0 5 494 1 280 1 197 1 99 1 157 1
1015 0 5 495 1 118 1 88 1 269 1 372 1
1016 0 5 496 1 317 1 169 1 467 1 350 1
1017 0 5 497 1 213 1 265 1 247 1 344 1
1018 0 5 498 1 478 1 367 1 373 1 264 1
1019 0 5 499 1 267 1 425 1 20 1 180 1
1020 0 5 500 1 78 1 109 1 94 1 14 1
1021 0 5 501 1 486 1 221 1 324 1 260 1
1022 0 5 502 0 520 1 519 1 518 1 517 1
1023 0 5 503 0 520 1 519 1 518 1 517 1
1024 0 5 504 0 520 1 519 1 518 1 517 1
1025 0 5 505 0 520 1 519 1 518 1 517 1
1026 0 5 506 0 520 1 519 1 518 1 517 1
1027 0 5 507 0 520 1 519 1 518 1 517 1
1028 0 5 508 0 520 1 519 1 518 1 517 1
1029 0 5 509 0 520 1 519 1 518 1 517 1
1030 0 5 510 0 520 1 519 1 518 1 517 1
1031 0 5 511 0 520 1 519 1 518 1 517 1
1032 0 5 512 0 520 1 519 1 518 1 517 1
1033 0 5 513 0 520 1 519 1 518 1 517 1
1034 0 5 514 0 520 1 519 1 518 1 517 1
1035 0 5 515 0 520 1 519 1 518 1 517 1
1036 0 5 516 0 520 1 519 1 518 1 517 1
1037 0 5 517 0 520 1 519 1 518 1 517 1
1038 0 5 518 0 520 1 519 1 518 1 517 1
1039 0 5 519 0 520 1 519 1 518 1 517 1
1040 0 5 520 0 520 1 519 1 518 1 517 1
-1
EOF
